p cnf 40 110
a 19 39 0
e 1 2 3 4 5 6 7 8 9 10 11 12 13 14 15 16 17 18 20 21 22 23 24 25 26 27 28 29 30 31 32 33 34 35 36 37 38 40 0
-4 2 0
-4 3 0
-2 -3 4 0
4 -5 0
-4 -5 0
5 2 -6 0
-5 -2 -6 0
5 -2 6 0
-5 2 6 0
7 -1 0
7 6 0
1 -6 -7 0
6 -8 -9 0
-6 8 -9 0
6 8 9 0
-6 -8 9 0
4 10 -11 0
-4 -10 -11 0
4 -10 11 0
-4 10 11 0
12 9 0
12 -11 0
-9 11 -12 0
-14 2 0
-14 -2 0
-15 -13 0
-15 14 0
13 -14 15 0
-4 16 -17 0
4 -16 -17 0
-4 -16 17 0
4 16 17 0
-19 -17 0
-19 -18 0
17 18 19 0
-20 13 0
-20 -18 0
-13 18 20 0
21 -20 0
21 3 0
20 -3 -21 0
-19 -21 -22 0
19 21 -22 0
-19 21 22 0
19 -21 22 0
23 -15 0
23 22 0
15 -22 -23 0
4 -14 -24 0
-4 14 -24 0
4 14 24 0
-4 -14 24 0
-26 25 0
-26 3 0
-25 -3 26 0
24 26 -27 0
-24 -26 -27 0
24 -26 27 0
-24 26 27 0
28 23 0
28 -27 0
-23 27 -28 0
29 -5 0
29 6 0
5 -6 -29 0
29 18 -30 0
-29 -18 -30 0
29 -18 30 0
-29 18 30 0
-31 -28 0
-31 30 0
28 -30 31 0
12 -31 -32 0
-12 31 -32 0
12 31 32 0
-12 -31 32 0
33 7 0
33 -32 0
-7 32 -33 0
-34 2 0
-34 8 0
-2 -8 34 0
36 35 0
36 25 0
-35 -25 -36 0
37 -36 0
37 4 0
36 -4 -37 0
36 -37 -38 0
-36 37 -38 0
36 37 38 0
-36 -37 38 0
-39 -34 0
-39 -38 0
34 38 39 0
-33 39 -40 0
33 -39 -40 0
-33 -39 40 0
33 39 40 0
35 32 23 0
-7 -16 -15 25 38 18 0
-36 -2 7 0
4 15 -10 0
6 32 -39 8 25 0
29 39 30 10 33 -40 0
-12 -3 26 22 -2 0
20 15 -1 33 37 27 14 0
10 38 14 -36 0
-19 -15 3 0
40 0
